(set-logic QF_FPBV)
(set-option :produce-models true)
(set-info :source |Random FP created by PyMPF|)
(set-info :category random)
(set-info :status sat)
;; fp.from.sbv(BitVec 128)
(declare-const x (_ BitVec 128))
(assert (bvsge x #b11011100110111011001000001001101101100100100111010000010100010111000011100010111111010011111000011011001001011110000101111100010))
;; x should be -46701783419786090636132702425892058142
(declare-const r Float64)
(assert (= r ((_ to_fp 11 53) RNA x)))
(assert (fp.geq r ((_ to_fp 11 53) #xC7C19137D926D8BF)))
(check-sat)
(exit)
